
  12    4
  10   10   10   10

   0   0   0   0   0   5 2 3 5 10 11 
   6  10  10  10  10   3 9 6 4 
   6  10  10  10  10   1 4 
   5  10  10  10  10   2 8 7 
   5  10  10  10  10   2 8 7 
   7  10  10  10  10   1 7 
   9  10  10  10  10   1 12
   4  10  10  10  10   1 12
   6  10  10  10  10   1 12
   6  10  10  10  10   1 12
   2  10  10  10  10   1 12
   0   0   0   0   0   0 
